Route #1: 14 3 91 108 38 5 6 109
Route #2: 18 25 56 55 76 83 22 61 60
Route #3: 27 65 36 64 104 93 43 99
Route #4: 52 50 39 28 31 17 59 95 68
Route #5: 54 96 88 75 21 41 12 58 19
Route #6: 69 84 24 103 4 101 33 9 102 30
Route #7: 71 80 2 77 67 45 89 46
Route #8: 51 85 11 15 98 66 53 26 87
Route #9: 32 74 20 92 97 42 106 34 105
Route #10: 1 79 90 16 70 23 13
Route #11: 57 107 94 37 7 82 48 47
Route #12: 8 40 86 10 72 63 100 62
Route #13: 78 29 44 81 35 73 49
Cost 16381
